%SETS
JOBS = 1..12;
MACHINES = 1..12;
SPEED    = 1;

time = array3d(JOBS,MACHINES,1..SPEED,time = [12, 1, 8, 62, 6, 15, 69, 1, 23, 77, 6, 20, 62, 3, ... ] // array too long to display, dimensions: (144)
);
energy = array3d(JOBS,MACHINES,1..SPEED,energy = [88, 99, 92, 53, 94, 86, 50, 99, 79, 46, 94, 81, 53... ] // array too long to display, dimensions: (144)
);
precedence = array2d(JOBS,MACHINES,[9, 3, 1, 4, 7, 6, 2, 5, 8, 11, 10, 0, 9, 0, 6, 2, 10, 3, 5, 8, 1, 4, 11, 7, 4, 6, 5, 11, 2, 1, 3, 7, 9, 10, 0, 8, 9, 10, 7, 3, 4, 1, 0, 6, 2, 5, 8, 11, 3, 10, 6, 2, 11, 7, 9, 4, 8, 0, 1, 5, 4, 11, 10, 2, 1, 8, 0, 5, 9, 3, 7, 6, 7, 0, 9, 5, 11, 6, 10, 2, 4, 1, 8, 3, 0, 4, 5, 1, 2, 11, 6, 8, 10, 9, 7, 3, 10, 3, 0, 9, 11, 8, 7, 4, 1, 2, 5, 6, 0, 1, 4, 5, 10, 7, 3, 8, 9, 6, 2, 11, 2, 11, 8, 7, 9, 0, 3, 6, 10, 1, 4, 5, 6, 10, 9, 8, 7, 1, 0, 2, 11, 5, 4, 3]);